Route #1: 1 46 30 6 28 9 14 9 47 35 1 
Route #2: 1 18 4 34 2 42 44 2 7 1 
Route #3: 1 40 11 40 10 33 26 33 1 
Route #4: 1 41 4 17 50 25 45 33 13 1 
Route #5: 1 5 6 38 16 6 37 48 49 31 1 
Route #6: 1 9 20 36 15 36 8 27 1 
Route #7: 1 2 43 2 23 29 22 29 3 1 
Cost 653.0
